(set-info :status unknown)
(declare-const symbol_4 (_ BitVec 32))
(declare-const symbol_10 (_ BitVec 32))
(declare-const symbol_0 (_ BitVec 32))
(declare-const symbol_9 (_ BitVec 32))
(declare-const symbol_3 (_ BitVec 32))
(declare-const symbol_11 (_ BitVec 32))
(declare-const symbol_14 (_ BitVec 32))
(declare-const symbol_6 (_ BitVec 32))
(declare-const symbol_1 (_ BitVec 32))
(declare-const symbol_2 (_ BitVec 32))
(declare-const symbol_7 (_ BitVec 32))
(declare-const symbol_13 (_ BitVec 32))
(declare-const symbol_8 (_ BitVec 32))
(declare-const symbol_12 (_ BitVec 32))
(declare-const symbol_5 (_ BitVec 32))
(assert (not (= symbol_14 symbol_3)))
(assert (not (= symbol_14 symbol_4)))
(assert (not (= symbol_14 symbol_5)))
(assert (not (= symbol_14 symbol_6)))
(assert (not (= symbol_14 symbol_7)))
(assert (not (= symbol_14 symbol_8)))
(assert (not (= symbol_14 symbol_9)))
(assert (not (= symbol_14 symbol_10)))
(assert (not (= symbol_14 symbol_11)))
(assert (not (= symbol_14 symbol_12)))
(assert (not (= symbol_14 symbol_13)))
(assert (not (= symbol_13 symbol_1)))
(assert (not (= symbol_13 symbol_2)))
(assert (not (= symbol_13 symbol_3)))
(assert (not (= symbol_13 symbol_4)))
(assert (not (= symbol_13 symbol_5)))
(assert (not (= symbol_13 symbol_6)))
(assert (not (= symbol_13 symbol_7)))
(assert (not (= symbol_13 symbol_8)))
(assert (not (= symbol_13 symbol_9)))
(assert (not (= symbol_13 symbol_10)))
(assert (not (= symbol_13 symbol_11)))
(assert (not (= symbol_13 symbol_12)))
(assert (not (= symbol_12 symbol_1)))
(assert (not (= symbol_12 symbol_2)))
(assert (not (= symbol_12 symbol_3)))
(assert (not (= symbol_12 symbol_4)))
(assert (not (= symbol_12 symbol_5)))
(assert (not (= symbol_12 symbol_6)))
(assert (not (= symbol_12 symbol_7)))
(assert (not (= symbol_12 symbol_8)))
(assert (not (= symbol_12 symbol_9)))
(assert (not (= symbol_12 symbol_10)))
(assert (not (= symbol_12 symbol_11)))
(assert (not (= symbol_11 symbol_1)))
(assert (not (= symbol_11 symbol_2)))
(assert (not (= symbol_11 symbol_3)))
(assert (not (= symbol_11 symbol_4)))
(assert (not (= symbol_11 symbol_5)))
(assert (not (= symbol_11 symbol_6)))
(assert (not (= symbol_11 symbol_7)))
(assert (not (= symbol_11 symbol_8)))
(assert (not (= symbol_11 symbol_9)))
(assert (not (= symbol_11 symbol_10)))
(assert (not (= symbol_10 symbol_1)))
(assert (not (= symbol_10 symbol_2)))
(assert (not (= symbol_10 symbol_3)))
(assert (not (= symbol_10 symbol_4)))
(assert (not (= symbol_10 symbol_5)))
(assert (not (= symbol_10 symbol_6)))
(assert (not (= symbol_10 symbol_7)))
(assert (not (= symbol_10 symbol_8)))
(assert (not (= symbol_10 symbol_9)))
(assert (not (= symbol_9 symbol_1)))
(assert (not (= symbol_9 symbol_2)))
(assert (not (= symbol_9 symbol_3)))
(assert (not (= symbol_9 symbol_4)))
(assert (not (= symbol_9 symbol_5)))
(assert (not (= symbol_9 symbol_6)))
(assert (not (= symbol_9 symbol_7)))
(assert (not (= symbol_9 symbol_8)))
(assert (not (= symbol_8 symbol_1)))
(assert (not (= symbol_8 symbol_2)))
(assert (not (= symbol_8 symbol_3)))
(assert (not (= symbol_8 symbol_4)))
(assert (not (= symbol_8 symbol_5)))
(assert (not (= symbol_8 symbol_6)))
(assert (not (= symbol_8 symbol_7)))
(assert (not (= symbol_7 symbol_1)))
(assert (not (= symbol_7 symbol_2)))
(assert (not (= symbol_7 symbol_3)))
(assert (not (= symbol_7 symbol_4)))
(assert (not (= symbol_7 symbol_5)))
(assert (not (= symbol_7 symbol_6)))
(assert (not (= symbol_6 symbol_1)))
(assert (not (= symbol_6 symbol_2)))
(assert (not (= symbol_6 symbol_3)))
(assert (not (= symbol_6 symbol_4)))
(assert (not (= symbol_6 symbol_5)))
(assert (not (= symbol_5 symbol_1)))
(assert (not (= symbol_5 symbol_2)))
(assert (not (= symbol_5 symbol_3)))
(assert (not (= symbol_5 symbol_4)))
(assert (not (= symbol_4 symbol_1)))
(assert (not (= symbol_4 symbol_2)))
(assert (not (= symbol_4 symbol_3)))
(assert (not (= symbol_3 symbol_1)))
(assert (not (= symbol_3 symbol_2)))
(assert (not (= symbol_2 symbol_1)))
(assert (= symbol_1 symbol_0))
(check-sat)